100
128
18
27
32
20
60
27
34
19
2
27
28
5
34
38
53
8
34
21
7
7
7
25
43
60
1
1
42
58
28
42
14
5
30
55
30
17
17
26
18
52
19
28
28
31
43
54
18
15
45
64
64
50
22
46
22
48
36
43
36
36
40
61
39
51
32
38
29
26
48
53
4
26
24
61
31
41
52
59
27
39
4
25
40
56
52
24
52
32
31
37
42
48
10
45
35
63
64
47
64
64